Optimal - objective value 695.00000000
      0 C           694.999999999999                       0
      1 x_0_0       96.9999999999996                       0
      2 x_0_1                   196                       0
      3 x_0_2       283.999999999999                       0
      4 x_0_3       288.999999999999                       0
      5 x_0_4       387.999999999999                       0
      6 x_0_5                   489                       0
      7 x_0_6       585.999999999999                       0
      8 x_1_0                   279                       0
      9 x_1_1                   284                       0
     10 x_1_2                   286                       0
     11 x_1_3       387.999999999999                       0
     12 x_1_4       485.999999999999                       0
     13 x_1_5       490.999999999999                       0
     14 x_1_6       587.999999999999                       0
     15 x_2_0       2.99999999999963                       0
     16 x_2_1                   193                       0
     17 x_2_2       294.999999999993                       0
     18 x_2_3       485.99999999998                       0
     19 x_2_4       582.99999999998                       0
     20 x_2_5       683.999999999999                       0
     21 x_2_6       687.999999999999                       0
     23 x_3_1                   195                       0
     24 x_3_2       576.999999999981                       0
     25 x_3_3       679.99999999998                       0
     26 x_3_4                   689                       0
     27 x_3_5       690.999999999999                       0
     28 x_3_6       691.999999999999                       0
     29 x_4_0       2.99999999999969                       0
     30 x_4_1                   189                       0
     31 x_4_2       294.999999999999                       0
     32 x_4_3       384.999999999999                       0
     33 x_4_4                   585                       0
     34 x_4_5                   586                       0
     35 x_4_6       688.999999999999                       0
     37 x_5_1                     2                       0
     38 x_5_2       485.999999999999                       0
     39 x_5_3                   587                       0
     40 x_5_4                   683                       0
     41 x_5_5                   688                       0
     42 x_5_6                   691                       0
     44 x_6_1                    98                       0
     45 x_6_2                   199                       0
     46 x_6_3                   295                       0
     47 x_6_4       392.999999999993                       0
     48 x_6_5                   492                       0
     49 x_6_6                   688                       0
     50 x_7_0                    98                       0
     51 x_7_1                   197                       0
     52 x_7_2                   198                       0
     53 x_7_3                   293                       0
     54 x_7_4                   392                       0
     55 x_7_5                   395                       0
     56 x_7_6                   489                       0
     57 x_8_0                     1                       0
     58 x_8_1                     2                       0
     59 x_8_2                     3                       0
     60 x_8_3       288.999999999999                       0
     61 x_8_4                   393                       0
     62 x_8_5       582.99999999998                       0
     63 x_8_6       679.99999999998                       0
     64 y_0_1_0                   1                       0
     65 y_0_1_1                   1                       0
     69 y_0_1_5                   1                       0
     70 y_0_1_6                   1                       0
     71 y_0_2_0                   1                       0
     75 y_0_2_4                   1                    2819
     78 y_0_3_0                   1                       0
     84 y_0_3_6                   1                       0
     87 y_0_4_2                   1                       0
     91 y_0_4_6                   1                       0
     94 y_0_5_2                   1                       0
     95 y_0_5_3                   1                       0
     99 y_0_6_0                   1                       0
    100 y_0_6_1                   1                       0
    103 y_0_6_4                   1                       0
    105 y_0_6_6                   1                       0
    106 y_0_7_0                   1                       0
    110 y_0_7_4                   1                       0
    111 y_0_7_5                   1                       0
    112 y_0_7_6                   1                       0
    113 y_0_8_0                   1                       0
    115 y_0_8_2                   1                       0
    116 y_0_8_3                   1                       0
    119 y_0_8_6                   1                       0
    120 y_1_2_0                   1                       0
    122 y_1_2_2                   1                       0
    124 y_1_2_4                   1                       0
    127 y_1_3_0                   1                       0
    133 y_1_3_6                   1                       0
    136 y_1_4_2                   1                       0
    137 y_1_4_3                   1                       0
    140 y_1_4_6                   1                       0
    143 y_1_5_2                   1                       0
    144 y_1_5_3                   1                       0
    149 y_1_6_1                   1                       0
    150 y_1_6_2                   1                       0
    151 y_1_6_3                   1                       0
    152 y_1_6_4                   1                       0
    157 y_1_7_2                   1                       0
    158 y_1_7_3                   1                       0
    159 y_1_7_4                   1                       0
    160 y_1_7_5                   1                       0
    161 y_1_7_6                   1                       0
    164 y_1_8_2                   1                       0
    165 y_1_8_3                   1                       0
    168 y_1_8_6                   1                       0
    169 y_2_3_0                   1                       0
    170 y_2_3_1                   1                       0
    175 y_2_3_6                   1                       0
    177 y_2_4_1                   1                       0
    178 y_2_4_2                   1                       0
    179 y_2_4_3                   1                       0
    182 y_2_4_6                   1                       0
    185 y_2_5_2                   1                       0
    186 y_2_5_3                   1                       0
    191 y_2_6_1                   1                       0
    193 y_2_6_3                   1                       0
    194 y_2_6_4                   1                       0
    196 y_2_6_6                   1                       0
    198 y_2_7_1                   1                       0
    199 y_2_7_2                   1                       0
    200 y_2_7_3                   1                       0
    201 y_2_7_4                   1                    2819
    202 y_2_7_5                   1                       0
    203 y_2_7_6                   1                       0
    205 y_2_8_1                   1                       0
    206 y_2_8_2                   1                       0
    207 y_2_8_3                   1                       0
    210 y_2_8_6                   1                       0
    212 y_3_4_1                   1                       0
    213 y_3_4_2                   1                       0
    214 y_3_4_3                   1                       0
    215 y_3_4_4                   1                       0
    217 y_3_4_6                   1                       0
    220 y_3_5_2                   1                       0
    221 y_3_5_3                   1                       0
    222 y_3_5_4                   1                       0
    226 y_3_6_1                   1                       0
    227 y_3_6_2                   1                       0
    228 y_3_6_3                   1                       0
    229 y_3_6_4                   1                       0
    233 y_3_7_1                   1                       0
    234 y_3_7_2                   1                       0
    235 y_3_7_3                   1                       0
    236 y_3_7_4                   1                       0
    237 y_3_7_5                   1                       0
    240 y_3_8_1                   1                       0
    241 y_3_8_2                   1                       0
    242 y_3_8_3                   1                       0
    243 y_3_8_4                   1                       0
    244 y_3_8_5                   1                       0
    245 y_3_8_6                   1                       0
    248 y_4_5_2                   1                       0
    249 y_4_5_3                   1                       0
    250 y_4_5_4                   1                       0
    251 y_4_5_5                   1                       0
    253 y_4_6_0                   1                       0
    254 y_4_6_1                   1                       0
    256 y_4_6_3                   1                       0
    257 y_4_6_4                   1                       0
    258 y_4_6_5                   1                       0
    260 y_4_7_0                   1                       0
    264 y_4_7_4                   1                       0
    265 y_4_7_5                   1                       0
    267 y_4_8_0                   1                       0
    268 y_4_8_1                   1                       0
    269 y_4_8_2                   1                       0
    270 y_4_8_3                   1                       0
    272 y_4_8_5                   1                       0
    273 y_4_8_6                   1                       0
    274 y_5_6_0                   1                       0
    275 y_5_6_1                   1                       0
    278 y_5_6_4                   1                       0
    280 y_5_6_6                   1                       0
    281 y_5_7_0                   1                       0
    282 y_5_7_1                   1                       0
    285 y_5_7_4                   1                       0
    286 y_5_7_5                   1                       0
    287 y_5_7_6                   1                       0
    288 y_5_8_0                   1                       0
    289 y_5_8_1                   1                       0
    291 y_5_8_3                   1                       0
    293 y_5_8_5                   1                       0
    294 y_5_8_6                   1                       0
    297 y_6_7_2                   1                       0
    300 y_6_7_5                   1                       0
    301 y_6_7_6                   1                       0
    304 y_6_8_2                   1                       0
    305 y_6_8_3                   1                       0
    307 y_6_8_5                   1                       0
    308 y_6_8_6                   1                       0
    309 y_7_8_0                   1                       0
    310 y_7_8_1                   1                       0
    311 y_7_8_2                   1                       0
    312 y_7_8_3                   1                       0
    315 y_7_8_6                   1                       0
